; PUSH cw_3 SWAP1 DUP2 PUSH cw_2 SWAP2 => PUSH cw_2 PUSH cw_3 DUP1 SWAP3
(set-option :produce-proofs true)
; 
(set-info :status unknown)
(declare-fun storage_t ((_ BitVec 256) (_ BitVec 256) (_ BitVec 256) Int (_ BitVec 256)) (_ BitVec 256))
(declare-fun w_2 () (_ BitVec 256))
(declare-fun w_3 () (_ BitVec 256))
(declare-fun storage_s ((_ BitVec 256) (_ BitVec 256) (_ BitVec 256) Int (_ BitVec 256)) (_ BitVec 256))
(declare-fun exc_halt_t (Int) Bool)
(declare-fun exc_halt_s (Int) Bool)
(declare-fun stack_t ((_ BitVec 256) (_ BitVec 256) (_ BitVec 256) Int (_ BitVec 6)) (_ BitVec 256))
(declare-fun stack_s ((_ BitVec 256) (_ BitVec 256) (_ BitVec 256) Int (_ BitVec 6)) (_ BitVec 256))
(declare-fun sc_t (Int) (_ BitVec 6))
(declare-fun sc_s (Int) (_ BitVec 6))
(declare-fun used_gas_t ((_ BitVec 256) (_ BitVec 256) (_ BitVec 256) Int) Int)
(declare-fun used_gas_s ((_ BitVec 256) (_ BitVec 256) (_ BitVec 256) Int) Int)
(assert
 (exists ((x_0 (_ BitVec 256)) )(let (($x7757 (forall ((w (_ BitVec 256)) )(let ((?x3179 (storage_t x_0 w_3 w_2 4 w)))
 (let ((?x746 (storage_s x_0 w_3 w_2 5 w)))
 (= ?x746 ?x3179))))
 ))
 (let (($x3723 (exc_halt_t 4)))
 (let (($x3979 (exc_halt_s 5)))
 (let (($x7567 (= $x3979 $x3723)))
 (let (($x5692 (forall ((n (_ BitVec 6)) )(let ((?x7784 (stack_t x_0 w_3 w_2 4 n)))
 (let ((?x7701 (stack_s x_0 w_3 w_2 5 n)))
 (let (($x8249 (= ?x7701 ?x7784)))
 (let ((?x3757 (sc_t 4)))
 (let (($x6373 (bvsle ?x3757 n)))
 (or $x6373 $x8249)))))))
 ))
 (let ((?x3757 (sc_t 4)))
 (let ((?x805 (sc_s 5)))
 (let (($x9143 (= ?x805 ?x3757)))
 (let ((?x6186 (used_gas_t x_0 w_3 w_2 0)))
 (let ((?x8002 (used_gas_s x_0 w_3 w_2 0)))
 (let (($x6192 (= ?x8002 ?x6186)))
 (let (($x8044 (forall ((w (_ BitVec 256)) )(let ((?x7934 (storage_t x_0 w_3 w_2 0 w)))
 (let ((?x8246 (storage_s x_0 w_3 w_2 0 w)))
 (= ?x8246 ?x7934))))
 ))
 (let (($x56 (exc_halt_t 0)))
 (let (($x57 (exc_halt_s 0)))
 (let (($x58 (= $x57 $x56)))
 (let (($x5393 (forall ((n (_ BitVec 6)) )(let ((?x6162 (stack_t x_0 w_3 w_2 0 n)))
 (let ((?x7396 (stack_s x_0 w_3 w_2 0 n)))
 (let (($x7347 (= ?x7396 ?x6162)))
 (let ((?x63 (sc_t 0)))
 (let (($x7266 (bvsle ?x63 n)))
 (or $x7266 $x7347)))))))
 ))
 (let ((?x63 (sc_t 0)))
 (let ((?x72 (sc_s 0)))
 (let (($x73 (= ?x72 ?x63)))
 (let (($x2176 (= $x3723 (or (exc_halt_t 3) (not (bvsle (_ bv0 6) (bvadd (_ bv60 6) (sc_t 3))))))))
 (let (($x5780 (forall ((w (_ BitVec 256)) )(let ((?x8117 (storage_t x_0 w_3 w_2 3 w)))
 (let ((?x3179 (storage_t x_0 w_3 w_2 4 w)))
 (= ?x3179 ?x8117))))
 ))
 (let (($x5784 (forall ((n (_ BitVec 6)) )(let ((?x5717 (stack_t x_0 w_3 w_2 3 n)))
 (let ((?x7784 (stack_t x_0 w_3 w_2 4 n)))
 (let ((?x2012 (sc_t 3)))
 (let ((?x3307 (bvadd (_ bv60 6) ?x2012)))
 (let (($x3220 (bvsle ?x3307 n)))
 (or $x3220 (= ?x7784 ?x5717))))))))
 ))
 (let ((?x2012 (sc_t 3)))
 (let (($x2149 (= ?x3757 ?x2012)))
 (let (($x5807 (= (used_gas_t x_0 w_3 w_2 4) (+ 3 (used_gas_t x_0 w_3 w_2 3)))))
 (let (($x5782 (= (stack_t x_0 w_3 w_2 4 (bvadd (_ bv62 6) ?x3757)) (stack_t x_0 w_3 w_2 3 (bvadd (_ bv62 6) ?x2012)))))
 (let (($x5793 (= (stack_t x_0 w_3 w_2 4 (bvadd (_ bv61 6) ?x3757)) (stack_t x_0 w_3 w_2 3 (bvadd (_ bv61 6) ?x2012)))))
 (let ((?x8024 (bvadd (_ bv63 6) ?x2012)))
 (let ((?x5893 (stack_t x_0 w_3 w_2 3 ?x8024)))
 (let (($x5345 (= (stack_t x_0 w_3 w_2 4 (bvadd (_ bv63 6) ?x3757)) (stack_t x_0 w_3 w_2 3 (bvadd (_ bv60 6) ?x2012)))))
 (let (($x10344 (not (bvsle (_ bv0 6) (bvadd (_ bv63 6) (sc_t 2))))))
 (let (($x2326 (not (= ((_ extract 6 6) (bvadd (_ bv1 7) (concat (_ bv0 1) (sc_t 2)))) (_ bv0 1)))))
 (let (($x903 (exc_halt_t 2)))
 (let (($x10336 (exc_halt_t 3)))
 (let (($x743 (= $x10336 (or $x903 $x2326 $x10344))))
 (let (($x5699 (forall ((w (_ BitVec 256)) )(let ((?x1033 (storage_t x_0 w_3 w_2 2 w)))
 (let ((?x8117 (storage_t x_0 w_3 w_2 3 w)))
 (= ?x8117 ?x1033))))
 ))
 (let (($x5905 (forall ((n (_ BitVec 6)) )(let ((?x4056 (sc_t 2)))
 (let ((?x2158 (bvadd (_ bv63 6) ?x4056)))
 (let (($x6720 (bvsle ?x2158 n)))
 (let ((?x7704 (stack_t x_0 w_3 w_2 2 n)))
 (let ((?x5717 (stack_t x_0 w_3 w_2 3 n)))
 (or (= ?x5717 ?x7704) $x6720)))))))
 ))
 (let (($x8655 (= ?x2012 (bvadd (_ bv1 6) (sc_t 2)))))
 (let ((?x8104 (used_gas_t x_0 w_3 w_2 3)))
 (let ((?x4056 (sc_t 2)))
 (let ((?x2158 (bvadd (_ bv63 6) ?x4056)))
 (let ((?x9264 (stack_t x_0 w_3 w_2 2 ?x2158)))
 (let (($x1881 (not (= ((_ extract 6 6) (bvadd (_ bv1 7) (concat (_ bv0 1) (sc_t 1)))) (_ bv0 1)))))
 (let (($x1920 (exc_halt_t 1)))
 (let (($x1699 (= $x903 (or $x1920 $x1881))))
 (let (($x5892 (forall ((w (_ BitVec 256)) )(let ((?x5967 (storage_t x_0 w_3 w_2 1 w)))
 (let ((?x1033 (storage_t x_0 w_3 w_2 2 w)))
 (= ?x1033 ?x5967))))
 ))
 (let (($x5886 (forall ((n (_ BitVec 6)) )(let ((?x3909 (stack_t x_0 w_3 w_2 1 n)))
 (let ((?x7704 (stack_t x_0 w_3 w_2 2 n)))
 (let ((?x4023 (sc_t 1)))
 (let (($x2724 (bvsle ?x4023 n)))
 (or $x2724 (= ?x7704 ?x3909)))))))
 ))
 (let (($x2343 (= ?x4056 (bvadd (_ bv1 6) (sc_t 1)))))
 (let ((?x7932 (used_gas_t x_0 w_3 w_2 2)))
 (let (($x3239 (= $x1920 (or $x56 (not (= ((_ extract 6 6) (bvadd (_ bv1 7) (concat (_ bv0 1) ?x63))) (_ bv0 1)))))))
 (let (($x5687 (forall ((w (_ BitVec 256)) )(let ((?x7934 (storage_t x_0 w_3 w_2 0 w)))
 (let ((?x5967 (storage_t x_0 w_3 w_2 1 w)))
 (= ?x5967 ?x7934))))
 ))
 (let (($x5558 (forall ((n (_ BitVec 6)) )(let ((?x63 (sc_t 0)))
 (let (($x7266 (bvsle ?x63 n)))
 (let ((?x6162 (stack_t x_0 w_3 w_2 0 n)))
 (let ((?x3909 (stack_t x_0 w_3 w_2 1 n)))
 (or (= ?x3909 ?x6162) $x7266))))))
 ))
 (let ((?x4023 (sc_t 1)))
 (let (($x9398 (= ?x4023 (bvadd (_ bv1 6) ?x63))))
 (let (($x843 (= $x3979 (or (exc_halt_s 4) (not (bvsle (_ bv0 6) (bvadd (_ bv61 6) (sc_s 4))))))))
 (let (($x5883 (forall ((w (_ BitVec 256)) )(let ((?x7892 (storage_s x_0 w_3 w_2 4 w)))
 (let ((?x746 (storage_s x_0 w_3 w_2 5 w)))
 (= ?x746 ?x7892))))
 ))
 (let (($x5727 (forall ((n (_ BitVec 6)) )(let ((?x4305 (sc_s 4)))
 (let ((?x988 (bvadd (_ bv61 6) ?x4305)))
 (let (($x981 (bvsle ?x988 n)))
 (let ((?x2189 (stack_s x_0 w_3 w_2 4 n)))
 (let ((?x7701 (stack_s x_0 w_3 w_2 5 n)))
 (or (= ?x7701 ?x2189) $x981)))))))
 ))
 (let ((?x4305 (sc_s 4)))
 (let (($x3369 (= ?x805 ?x4305)))
 (let (($x614 (= (used_gas_s x_0 w_3 w_2 5) (+ 3 (used_gas_s x_0 w_3 w_2 4)))))
 (let (($x5722 (= (stack_s x_0 w_3 w_2 5 (bvadd (_ bv62 6) ?x805)) (stack_s x_0 w_3 w_2 4 (bvadd (_ bv62 6) ?x4305)))))
 (let (($x5761 (= (stack_s x_0 w_3 w_2 5 (bvadd (_ bv61 6) ?x805)) (stack_s x_0 w_3 w_2 4 (bvadd (_ bv63 6) ?x4305)))))
 (let (($x5889 (= (stack_s x_0 w_3 w_2 5 (bvadd (_ bv63 6) ?x805)) (stack_s x_0 w_3 w_2 4 (bvadd (_ bv61 6) ?x4305)))))
 (let (($x2793 (not (= ((_ extract 6 6) (bvadd (_ bv1 7) (concat (_ bv0 1) (sc_s 3)))) (_ bv0 1)))))
 (let (($x292 (exc_halt_s 3)))
 (let (($x64 (exc_halt_s 4)))
 (let (($x8947 (= $x64 (or $x292 $x2793))))
 (let (($x7990 (forall ((w (_ BitVec 256)) )(let ((?x579 (storage_s x_0 w_3 w_2 3 w)))
 (let ((?x7892 (storage_s x_0 w_3 w_2 4 w)))
 (= ?x7892 ?x579))))
 ))
 (let (($x5850 (forall ((n (_ BitVec 6)) )(let ((?x275 (sc_s 3)))
 (let (($x9161 (bvsle ?x275 n)))
 (let ((?x7159 (stack_s x_0 w_3 w_2 3 n)))
 (let ((?x2189 (stack_s x_0 w_3 w_2 4 n)))
 (or (= ?x2189 ?x7159) $x9161))))))
 ))
 (let (($x8496 (= ?x4305 (bvadd (_ bv1 6) (sc_s 3)))))
 (let ((?x3316 (used_gas_s x_0 w_3 w_2 4)))
 (let (($x7584 (not (= ((_ extract 6 6) (bvadd (_ bv1 7) (concat (_ bv0 1) (sc_s 2)))) (_ bv0 1)))))
 (let (($x247 (exc_halt_s 2)))
 (let (($x8453 (forall ((w (_ BitVec 256)) )(let ((?x5823 (storage_s x_0 w_3 w_2 2 w)))
 (let ((?x579 (storage_s x_0 w_3 w_2 3 w)))
 (= ?x579 ?x5823))))
 ))
 (let (($x3199 (forall ((n (_ BitVec 6)) )(let ((?x5821 (stack_s x_0 w_3 w_2 2 n)))
 (let ((?x7159 (stack_s x_0 w_3 w_2 3 n)))
 (or (bvsle (bvadd (_ bv62 6) (sc_s 2)) n) (= ?x7159 ?x5821)))))
 ))
 (let ((?x275 (sc_s 3)))
 (let (($x9283 (= ?x275 (bvadd (_ bv1 6) (sc_s 2)))))
 (let ((?x8186 (used_gas_s x_0 w_3 w_2 3)))
 (let ((?x218 (sc_s 2)))
 (let ((?x3563 (bvadd (_ bv63 6) ?x218)))
 (let ((?x7239 (stack_s x_0 w_3 w_2 2 ?x3563)))
 (let ((?x2611 (bvadd (_ bv62 6) ?x218)))
 (let ((?x5947 (stack_s x_0 w_3 w_2 2 ?x2611)))
 (let (($x8270 (= $x247 (or (exc_halt_s 1) (not (bvsle (_ bv0 6) (bvadd (_ bv62 6) (sc_s 1))))))))
 (let (($x7927 (forall ((w (_ BitVec 256)) )(let ((?x6494 (storage_s x_0 w_3 w_2 1 w)))
 (let ((?x5823 (storage_s x_0 w_3 w_2 2 w)))
 (= ?x5823 ?x6494))))
 ))
 (let (($x7935 (forall ((n (_ BitVec 6)) )(let ((?x9146 (stack_s x_0 w_3 w_2 1 n)))
 (let ((?x5821 (stack_s x_0 w_3 w_2 2 n)))
 (let ((?x154 (sc_s 1)))
 (let ((?x3271 (bvadd (_ bv62 6) ?x154)))
 (let (($x3254 (bvsle ?x3271 n)))
 (or $x3254 (= ?x5821 ?x9146))))))))
 ))
 (let ((?x154 (sc_s 1)))
 (let (($x1777 (= ?x218 ?x154)))
 (let ((?x8721 (used_gas_s x_0 w_3 w_2 2)))
 (let (($x189 (exc_halt_s 1)))
 (let (($x7947 (= $x189 (or $x57 (not (= ((_ extract 6 6) (bvadd (_ bv1 7) (concat (_ bv0 1) ?x72))) (_ bv0 1)))))))
 (let (($x2995 (forall ((w (_ BitVec 256)) )(let ((?x8246 (storage_s x_0 w_3 w_2 0 w)))
 (let ((?x6494 (storage_s x_0 w_3 w_2 1 w)))
 (= ?x6494 ?x8246))))
 ))
 (let (($x5933 (forall ((n (_ BitVec 6)) )(let ((?x72 (sc_s 0)))
 (let (($x8308 (bvsle ?x72 n)))
 (let ((?x7396 (stack_s x_0 w_3 w_2 0 n)))
 (let ((?x9146 (stack_s x_0 w_3 w_2 1 n)))
 (or (= ?x9146 ?x7396) $x8308))))))
 ))
 (let (($x3028 (= ?x154 (bvadd (_ bv1 6) ?x72))))
 (let (($x9065 (forall ((w (_ BitVec 256)) )(let ((?x8246 (storage_s x_0 w_3 w_2 0 w)))
 (= ?x8246 (_ bv0 256))))
 ))
 (let (($x9257 (= ?x8002 0)))
 (let (($x3253 (not $x57)))
 (let (($x9179 (= (stack_s x_0 w_3 w_2 0 (_ bv0 6)) x_0)))
 (let (($x7221 (= ?x72 (_ bv1 6))))
 (and $x7221 $x9179 $x3253 $x9257 $x9065 (= (stack_s x_0 w_3 w_2 1 ?x72) w_3) (= (used_gas_s x_0 w_3 w_2 1) (+ 3 ?x8002)) $x3028 $x5933 $x2995 $x7947 (= ?x7239 (stack_s x_0 w_3 w_2 1 (bvadd (_ bv62 6) ?x154))) (= ?x5947 (stack_s x_0 w_3 w_2 1 (bvadd (_ bv63 6) ?x154))) (= ?x8721 (+ 3 (used_gas_s x_0 w_3 w_2 1))) $x1777 $x7935 $x7927 $x8270 (= (stack_s x_0 w_3 w_2 3 (bvadd (_ bv63 6) ?x275)) ?x5947) (= (stack_s x_0 w_3 w_2 3 ?x2611) ?x5947) (= (stack_s x_0 w_3 w_2 3 ?x3563) ?x7239) (= ?x8186 (+ 3 ?x8721)) $x9283 $x3199 $x8453 (= $x292 (or $x247 $x7584 (not (bvsle (_ bv0 6) ?x2611)))) (= (stack_s x_0 w_3 w_2 4 ?x275) w_2) (= ?x3316 (+ 3 ?x8186)) $x8496 $x5850 $x7990 $x8947 $x5889 $x5761 $x5722 $x614 $x3369 $x5727 $x5883 $x843 (= (stack_t x_0 w_3 w_2 1 ?x63) w_2) (= (used_gas_t x_0 w_3 w_2 1) (+ 3 ?x6186)) $x9398 $x5558 $x5687 $x3239 (= (stack_t x_0 w_3 w_2 2 ?x4023) w_3) (= ?x7932 (+ 3 (used_gas_t x_0 w_3 w_2 1))) $x2343 $x5886 $x5892 $x1699 (= ?x5893 ?x9264) (= (stack_t x_0 w_3 w_2 3 ?x2158) ?x9264) (= ?x8104 (+ 3 ?x7932)) $x8655 $x5905 $x5699 $x743 $x5345 (= (stack_t x_0 w_3 w_2 4 (bvadd (_ bv60 6) ?x3757)) ?x5893) $x5793 $x5782 $x5807 $x2149 $x5784 $x5780 $x2176 $x73 $x5393 $x58 $x8044 $x6192 (not (and $x9143 $x5692 $x7567 $x7757)))))))))))))))))))))))))))))))))))))))))))))))))))))))))))))))))))))))))))))))))))))))))))))))))))))))
 )
(check-sat)
(get-proof)
